p cnf 10 50
-10 -3 1 0
-5 -10 -4 0
2 10 -1 0
-3 -2 5 0
-7 -8 -9 0
-1 -5 4 0
5 -9 4 0
4 3 -1 0
-4 -7 8 0
-6 -7 4 0
-8 -4 -7 0
-9 4 1 0
-5 8 4 0
6 9 -10 0
-4 10 -5 0
-2 5 -7 0
5 3 -9 0
4 -9 7 0
4 9 6 0
-3 5 -10 0
-6 3 8 0
8 -9 -5 0
3 -7 -1 0
9 -5 2 0
9 7 -10 0
-2 -1 3 0
6 8 -3 0
-1 -3 8 0
7 5 -1 0
7 9 -3 0
8 -2 -4 0
-6 9 -4 0
-3 2 -9 0
-10 -5 -8 0
-4 7 5 0
10 -3 5 0
-5 3 -8 0
-2 3 7 0
8 -5 6 0
-7 5 3 0
-8 5 2 0
-2 -5 10 0
-5 -6 4 0
-8 -9 2 0
9 -3 5 0
-5 -9 1 0
-10 -9 1 0
-8 -1 7 0
4 2 -5 0
4 3 7 0